c preprocessed version of 1ubq, 47 vertices, 170 edges
p td 47 170
0 1
0 15
0 21
2 1
4 1
1 8
14 1
39 1
40 1
41 1
2 3
2 4
2 8
2 37
2 18
2 9
19 2
40 2
41 2
3 4
3 5
3 6
3 9
32 3
34 3
12 3
35 3
4 5
34 4
12 4
40 4
41 4
5 6
10 5
31 5
33 5
32 5
34 5
12 5
36 5
40 5
41 5
7 6
6 9
10 6
30 6
33 6
32 6
40 6
7 8
10 7
40 7
8 9
15 8
8 37
39 8
40 8
10 9
37 9
19 9
22 9
30 9
32 9
10 11
24 10
10 26
27 10
31 10
33 10
32 10
36 10
40 10
12 11
41 11
12 13
12 19
34 12
12 35
12 36
41 12
14 13
19 13
13 20
13 21
41 13
14 15
39 14
41 14
16 15
17 16
38 16
17 18
17 20
17 21
19 18
37 18
19 20
19 22
23 19
21 20
23 22
32 22
23 24
30 23
29 23
24 25
24 30
24 29
33 24
26 25
29 25
28 25
27 26
28 26
28 27
31 27
33 27
28 29
31 28
33 28
32 28
30 29
31 32
31 33
36 31
33 32
34 32
35 32
34 35
34 36
36 35
38 39
38 40
38 41
39 40
39 41
40 41
42 2
42 6
42 7
42 43
42 9
42 44
42 8
42 37
42 18
42 45
42 30
43 6
43 7
43 8
43 9
43 37
43 10
43 44
43 45
43 30
44 46
44 7
44 45
44 38
45 46
45 7
45 8
45 37
45 38
46 42
46 43
46 11
46 10
